51
7
0 7 8 10 11 12 13 15 16 17 18 19 22 23 24 25 26 27 28 29 30 31 33 34 37 41 45 47 48 50
1 7 11 12 16 17 18 25 26 27 28 31 34 37 38 39 41 45 48
2 7 10 13 15 16 22 24 25 27 30 31 32 36 37 41 42 44 46 48 50
3 8 9 11 12 13 14 15 16 21 22 23 24 26 29 30 31 38 39 40 42 46 48
4 8 10 11 12 13 14 15 17 18 19 20 21 27 28 29 32 39 43 44 45 48 49
5 7 20 23 27 28 29 30 31 33 35 39 50
6 9 10 19 37 48
